Version identifier: 20.1.0.0 | 2020-11-10 | 9bedb6d68
CPXPARAM_Threads                                 1
CPXPARAM_TimeLimit                               7200
CPXPARAM_MIP_Tolerances_MIPGap                   0
Generic callback                                 0x60
1 of 1 MIP starts provided solutions.
MIP start 'm1' defined initial solution with objective 793.9655.
Tried aggregator 1 time.
Reduced MIP has 1 rows, 1001 columns, and 1000 nonzeros.
Reduced MIP has 1000 binaries, 0 generals, 0 SOSs, and 0 indicators.
Presolve time = 0.00 sec. (0.30 ticks)
Probing time = 0.00 sec. (0.11 ticks)
Tried aggregator 1 time.
Reduced MIP has 1 rows, 1001 columns, and 1000 nonzeros.
Reduced MIP has 1000 binaries, 0 generals, 0 SOSs, and 0 indicators.
Presolve time = 0.00 sec. (0.31 ticks)
Probing time = 0.00 sec. (0.11 ticks)
MIP emphasis: balance optimality and feasibility.
MIP search method: dynamic search.
Parallel mode: none, using 1 thread.
Root relaxation solution time = 0.00 sec. (0.21 ticks)

        Nodes                                         Cuts/
   Node  Left     Objective  IInf  Best Integer    Best Bound    ItCnt     Gap

*     0+    0                          793.9655     4368.0000           450.15%
      0     0     1071.8445     2      793.9655     4368.0000        0  450.15%
      0     0      970.6054     4      793.9655 UserPurge2: 1       16   22.25%
      0     0      947.4408     5      793.9655 UserPurge2: 1       28   19.33%
      0     0      905.8474     4      793.9655 UserPurge2: 1       36   14.09%
      0     0      842.7640     4      793.9655 UserPurge2: 1       55    6.15%

Repeating presolve.
Tried aggregator 1 time.
MIP Presolve eliminated 0 rows and 316 columns.
Reduced MIP has 1 rows, 685 columns, and 684 nonzeros.
Reduced MIP has 684 binaries, 0 generals, 0 SOSs, and 0 indicators.
Presolve time = 0.00 sec. (0.27 ticks)
Probing time = 0.00 sec. (0.07 ticks)
Tried aggregator 1 time.
Reduced MIP has 1 rows, 685 columns, and 684 nonzeros.
Reduced MIP has 684 binaries, 0 generals, 0 SOSs, and 0 indicators.
Presolve time = 0.00 sec. (0.21 ticks)
Represolve time = 0.00 sec. (1.72 ticks)
Probing time = 0.00 sec. (0.07 ticks)
MIP emphasis: balance optimality and feasibility.
MIP search method: dynamic search.
Parallel mode: none, using 1 thread.
Root relaxation solution time = 0.00 sec. (1.07 ticks)

        Nodes                                         Cuts/
   Node  Left     Objective  IInf  Best Integer    Best Bound    ItCnt     Gap

*     0+    0                          793.9655      842.7640             6.15%
      0     0      841.9880     5      793.9655      841.9880       80    6.05%
      0     0      822.2685     3      793.9655 UserPurge2: 1       93    3.56%
      0     2      822.2250     4      793.9655      822.1978       93    3.56%
Elapsed time = 7.29 sec. (20.71 ticks, tree = 0.01 MB, solutions = 1)
      2     2        cutoff            793.9655      797.5436     1261    0.45%
*     3     1      integral     0      797.4569      797.5436     1298    0.01%

User cuts applied:  217

Root node processing (before b&c):
  Real time             =    7.29 sec. (21.15 ticks)
Sequential b&c:
  Real time             =   88.99 sec. (258.52 ticks)
                          ------------
Total (root+branch&cut) =   96.28 sec. (279.67 ticks)
@Parameters: 
is_S_cut                                true
is_add_all_yinF                         true
is_start_value                          true
is_usercut                              true
is_visualization                        false
uc_only_rootnode                        false

data                                    Qi
fn                                      data/Qi/instance_800_1000.csv
mode                                    NewSubmodular
solver                                  cplex

p                                       2
r                                       50

EPS                                     1.0e-06
EPS_vio                                 1.0e-04
beta                                    0.10
gap                                     0.00
nodelimit                               Inf
timelimit                               7200.00


@PrintInfos
ItCnt: 1302
Current gap: 0.00 %
Termination Status: OPTIMAL
Primal Status: FEASIBLE_POINT
Solve Time: 96.28 sec
Objective Value: 797.456878
Number of Nodes:      5

CutInfo: [phase] num / time (sec) 
ZLP             [phase1]     0 / 0.00 [rLC]     0 / 0.00 [rUC]     0 / 0.00 [sLC]     0 / 0.00 [sUC]     0 / 0.00 
OldSubmodular   [phase1]     0 / 0.00 [rLC]     0 / 0.00 [rUC]     0 / 0.00 [sLC]     0 / 0.00 [sUC]     0 / 0.00 
NewSubmodular   [phase1]     0 / 0.00 [rLC]    12 / 4.23 [rUC]     7 / 1.02 [sLC]     1 / 1.88 [sUC]   210 / 86.83 
PMP             [phase1]     0 / 0.00 [rLC]     3 / 1.55 [rUC]     0 / 0.00 [sLC]     2 / 1.53 [sUC]     3 / 2.09 
Separation Round: [phase1] 0  [rLC] 13  [rUC] 7  [sLC] 2  [sUC] 101
Root Best Bound 797.543551
Root Best Integer: 793.965466
Best Bound: 797.456878
Best Integer: 797.456878

